18
12
4
13
1
15
19
3
8
21
9
16
13
5
19
16
7
5
13
3
11
22
19
12
14
9
9
13
6
10
4
1
15
1
16
6
7
2
17
3
20
17
6
7
1
3
2
19
7
2
4
4
21
14
7
5
3
2
10
10
17
21
15
6
12
10
10
18
1
11
17
2
11
9
14
4
6
20
20
17
7
5
22
10
18
10
6
2
1
6
13
8
2
16
7
20
3
3
8
14
19
18
12
20
17
9
14
5
13
16
18
8
15
8
8
14
9
18
11
9
11
5
4
1
22
